
Gurobi 9.0.2 (linux64, Python) logging started Thu Jun 18 11:21:03 2020

Using license file /Volumes/Users/sun_d1/gurobi.lic
Set parameter LogFile to value gurobi.log
Academic license - for non-commercial use only

Gurobi 9.0.2 (linux64, Python) logging started Thu Jun 18 14:34:19 2020

Using license file /Volumes/Users/sun_d1/gurobi.lic
Set parameter LogFile to value gurobi.log
Academic license - for non-commercial use only
